(set-info :smt-lib-version 2.6)
(set-logic QF_UFLRA)
(set-info :source |
MathSat group

|)
(set-info :category "random")
(set-info :status sat)
(declare-fun x0 () Real)
(declare-fun x1 () Real)
(declare-fun x2 () Real)
(declare-fun x3 () Real)
(declare-fun x4 () Real)
(declare-fun x5 () Real)
(declare-fun x6 () Real)
(declare-fun x7 () Real)
(declare-fun x8 () Real)
(declare-fun x9 () Real)
(declare-fun x10 () Real)
(declare-fun x11 () Real)
(declare-fun x12 () Real)
(declare-fun x13 () Real)
(declare-fun x14 () Real)
(declare-fun x15 () Real)
(declare-fun x16 () Real)
(declare-fun x17 () Real)
(declare-fun x18 () Real)
(declare-fun x19 () Real)
(declare-fun x20 () Real)
(declare-fun x21 () Real)
(declare-fun x22 () Real)
(declare-fun x23 () Real)
(declare-fun x24 () Real)
(declare-fun x25 () Real)
(declare-fun x26 () Real)
(declare-fun x27 () Real)
(declare-fun x28 () Real)
(declare-fun x29 () Real)
(declare-fun f0_1 (Real) Real)
(declare-fun f0_2 (Real Real) Real)
(declare-fun f0_3 (Real Real Real) Real)
(declare-fun f0_4 (Real Real Real Real) Real)
(declare-fun P0 () Bool)
(declare-fun P1 () Bool)
(declare-fun P2 () Bool)
(declare-fun P3 () Bool)
(declare-fun P4 () Bool)
(declare-fun P5 () Bool)
(declare-fun P6 () Bool)
(declare-fun P7 () Bool)
(declare-fun P8 () Bool)
(declare-fun P9 () Bool)
(declare-fun P10 () Bool)
(declare-fun P11 () Bool)
(declare-fun P12 () Bool)
(declare-fun P13 () Bool)
(declare-fun P14 () Bool)
(declare-fun P15 () Bool)
(declare-fun P16 () Bool)
(declare-fun P17 () Bool)
(declare-fun P18 () Bool)
(declare-fun P19 () Bool)
(declare-fun P20 () Bool)
(declare-fun P21 () Bool)
(declare-fun P22 () Bool)
(declare-fun P23 () Bool)
(declare-fun P24 () Bool)
(declare-fun P25 () Bool)
(declare-fun P26 () Bool)
(declare-fun P27 () Bool)
(declare-fun P28 () Bool)
(declare-fun P29 () Bool)
(assert (let ((?v_138 (<= (- (- (* 12 x21) (* 26 x26)) (* 3 x8)) 2)) (?v_32 (* 38 x15))) (let ((?v_45 (<= (- (+ ?v_32 (* 13 x24)) (* 18 x10)) 12)) (?v_12 (* 35 x19)) (?v_121 (< (+ (- (* 6 x22) (* 17 x18)) (* 3 x6)) 15)) (?v_8 (distinct x21 (f0_2 x19 x3))) (?v_30 (f0_1 x24))) (let ((?v_7 (= (f0_2 x6 x22) ?v_30)) (?v_71 (= x3 (f0_2 x26 x17))) (?v_28 (f0_1 x16))) (let ((?v_56 (= x10 ?v_28)) (?v_50 (distinct (f0_2 x2 x6) x2)) (?v_47 (f0_1 x18))) (let ((?v_9 (= ?v_47 (f0_1 x14))) (?v_110 (f0_2 x7 x26))) (let ((?v_118 (distinct ?v_110 (f0_1 x6))) (?v_18 (= x23 x4)) (?v_25 (f0_2 x26 x4))) (let ((?v_90 (distinct x14 ?v_25)) (?v_54 (= (f0_2 x19 x8) (f0_2 x28 x10))) (?v_0 (= (f0_1 x0) x19)) (?v_37 (f0_1 x25))) (let ((?v_117 (= ?v_37 (f0_2 x19 x24))) (?v_13 (f0_1 x2))) (let ((?v_43 (distinct (f0_2 x8 x20) ?v_13)) (?v_69 (distinct ?v_110 x28)) (?v_46 (= (f0_2 x26 x24) ?v_13)) (?v_57 (= (f0_2 x9 x11) (f0_2 x19 x19))) (?v_85 (f0_1 x23))) (let ((?v_124 (distinct x29 ?v_85)) (?v_20 (distinct ?v_37 ?v_28)) (?v_155 (distinct (f0_1 x13) ?v_25)) (?v_38 (= (f0_1 x26) x5)) (?v_76 (= (f0_1 x12) ?v_25)) (?v_49 (distinct x22 ?v_47)) (?v_72 (distinct (f0_2 x2 x16) (f0_2 x9 x3))) (?v_128 (= (f0_1 x10) (f0_2 x5 x10))) (?v_102 (distinct (f0_2 x26 x25) (f0_2 x24 x5))) (?v_82 (= (f0_2 x1 x27) (f0_2 x20 x10))) (?v_101 (= ?v_85 x10)) (?v_44 (= ?v_37 x12)) (?v_100 (distinct ?v_30 x24)) (?v_65 (distinct (f0_2 x5 x24) (f0_2 x28 x20))) (?v_135 (not P21)) (?v_125 (not ?v_121)) (?v_106 (not ?v_0)) (?v_86 (not P8)) (?v_6 (not P3)) (?v_35 (not ?v_57)) (?v_66 (not P20)) (?v_52 (not ?v_9)) (?v_10 (not P5)) (?v_36 (not P16))) (let ((?v_136 (not ?v_20)) (?v_99 (not P11)) (?v_11 (not P9)) (?v_60 (not ?v_8)) (?v_31 (not ?v_7)) (?v_33 (not ?v_128)) (?v_22 (not ?v_69)) (?v_26 (not ?v_72)) (?v_103 (not P10)) (?v_29 (not ?v_46)) (?v_129 (not P17)) (?v_19 (not P1)) (?v_48 (not P4)) (?v_77 (not P29)) (?v_23 (not ?v_18)) (?v_139 (not ?v_155)) (?v_80 (not ?v_90)) (?v_158 (or P16 ?v_56)) (?v_75 (not ?v_100)) (?v_107 (not P6)) (?v_51 (not P13)) (?v_83 (not P28)) (?v_39 (not ?v_44)) (?v_73 (not P15)) (?v_97 (not ?v_82)) (?v_62 (not P24)) (?v_67 (not P18)) (?v_64 (not P26)) (?v_89 (not ?v_49)) (?v_112 (not ?v_50)) (?v_74 (not P19)) (?v_150 (not ?v_38)) (?v_63 (not ?v_56)) (?v_142 (not P14)) (?v_95 (not P2)) (?v_119 (not ?v_65)) (?v_78 (not P23)) (?v_92 (not ?v_138)) (?v_143 (not ?v_71)) (?v_134 (not P22)) (?v_93 (not P25)) (?v_147 (not ?v_76)) (?v_104 (not P27)) (?v_130 (not P12)) (?v_131 (not ?v_54)) (?v_109 (not ?v_102)) (?v_120 (not P7)) (?v_111 (not ?v_118)) (?v_123 (not ?v_43)) (?v_140 (not ?v_124)) (?v_145 (not ?v_101)) (?v_156 (not P0)) (?v_1 (<= (+ (* 29 x27) (* 32 x23) (* 22 x13)) 10))) (let ((?v_149 (not ?v_1)) (?v_91 (< (+ (* 10 x7) (* 27 x20) (* 28 x16)) 31)) (?v_115 (< (+ (* 13 x1) (* 28 x19) (* 41 x22)) 0))) (let ((?v_84 (not ?v_115)) (?v_151 (not ?v_91)) (?v_15 (distinct (- (- 0 (* 8 x18)) (* 33 x2)) (- 14))) (?v_70 (< (- (- (* 40 x21) (* 25 x2)) (* 22 x22)) (- 28)))) (let ((?v_58 (not ?v_70)) (?v_4 (< (- (+ (* 14 x5) (* 34 x10)) ?v_32) (- 28))) (?v_24 (< (+ (* 32 x2) (* 26 x10) (* 41 x29)) (- 6)))) (let ((?v_113 (not ?v_24)) (?v_17 (< (+ (* 36 x11) (* 25 x9)) (- 24))) (?v_2 (<= (- (+ (* (- 10) x1) (* 12 x9)) (* 18 x8)) 41)) (?v_59 (<= (- (+ (* (- 9) x2) (* 20 x21)) (* 19 x8)) (- 40))) (?v_42 (<= (- (- (* (- 28) x16) (* 19 x19)) (* 21 x21)) (- 13))) (?v_3 (<= (- (+ (* (- 19) x21) (* 12 x11)) (* 7 x3)) (- 7))) (?v_16 (distinct (- (+ (* (- 32) x8) (* 4 x9)) (* 32 x15)) 36))) (let ((?v_148 (not ?v_16)) (?v_114 (not ?v_2)) (?v_94 (not ?v_3)) (?v_5 (< (+ (* (- 13) x1) (* 24 x29) (* 3 x2)) (- 16)))) (let ((?v_21 (not ?v_5)) (?v_55 (distinct (- (- (* (- 15) x6) (* 7 x13)) (* 37 x6)) (- 8)))) (let ((?v_14 (not ?v_55)) (?v_34 (<= (+ (* 16 x23) ?v_12) (- 44))) (?v_41 (distinct (+ ?v_12 (* 13 x21) (* 35 x14)) (- 2))) (?v_40 (<= (+ (- (* (- 13) x18) (* 19 x9)) (* 30 x15)) 21)) (?v_81 (<= (+ (* (- 16) x4) (* 20 x17) (* 14 x19)) (- 30))) (?v_68 (distinct (- (+ (* (- 35) x9) (* 35 x13)) (* 15 x28)) 26)) (?v_27 (<= (- (+ (* (- 2) x24) (* 12 x27)) (* 39 x19)) 37)) (?v_96 (< (- (+ (* 39 x22) (* 30 x2)) (* 27 x15)) (- 20)))) (let ((?v_132 (not ?v_96)) (?v_61 (= (+ (* (- 16) x3) (* 9 x23) (* 20 x25)) (- 18))) (?v_87 (not ?v_34)) (?v_53 (not ?v_41)) (?v_79 (not ?v_40)) (?v_98 (not ?v_4)) (?v_133 (or ?v_59 ?v_60)) (?v_127 (<= (- (- (* (- 11) x8) (* 12 x25)) (* 32 x19)) (- 28))) (?v_137 (not ?v_27)) (?v_88 (not ?v_68)) (?v_122 (not ?v_15)) (?v_126 (< (+ (- (* (- 31) x0) (* 25 x5)) (* 3 x1)) 23))) (let ((?v_116 (not ?v_126)) (?v_105 (< (- (- (* (- 26) x0) (* 2 x22)) (* 41 x27)) 38))) (let ((?v_154 (not ?v_105)) (?v_108 (<= (+ (- (* (- 42) x28) (* 41 x19)) (* 25 x22)) 8))) (let ((?v_141 (not ?v_108)) (?v_153 (not ?v_81)) (?v_157 (not ?v_127)) (?v_144 (not ?v_61)) (?v_146 (or ?v_0 ?v_132)) (?v_152 (not ?v_17))) (and (and (and (and (and (and (and (and (and (and (and (and (and (and (and (and (and (and (and (and (and (and (and (and (and (and (and (and (and (and (and (and (and (and (and (and (and (and (and (and (and (and (and (and (and (and (and (and (and (and (and (and (and (and (and (and (and (and (and (and (and (and (and (and (and (and (and (and (and (and (and (and (and (and (and (and (and (and (and (and (and (and (and (and (and (and (and (and (and (and (and (and (and (and (and (and (and (and (and (and (and (and (and (and (and (and (and (and (and (and (and (and (and (and (and (and (and (and (and (and (and (and (and (and (and (and (and (and (and (and (and (and (and (and (and (and (and (and (and (and (and (and (and (and (and (and (and (and (and (and (and (and (and (and (and (and (and (and (and (and (and (and (and (and (and (and (and (and (and (and (and (and (and (and (and (and (and (and (and (and (and (and (and (and (and (and (and (and (and (and (and (and (and (and (and (and (and (and (and (and (and (and (and (and (and (and (and (and (and (and (and (and (and (and (and (and (and (and (and (and (and (and (and (and (and (and (and (and (and (and (and (and (and (and (and (and (and (and (and (and (and (and (and (and (and (and (and (and (and (and (and (and (and (and (and (and (and (and (and (and (and (and (and (and (and (and (and (and (and (and (and (and (and (and (and (and (and (and (and (and (and (and (and (and (and (and (and (and (and (and (and (and (and (and (and (and (and (and (and (and (and (and (and (and (and (and (and (and (and (and (and (and (and (and (and (and (and (and (and (and (and (and (and (and (and (and (and (and (and (and (and (and (and (and (and (and (and (and (and (and (and (and (and (and (and (and (and (and (and (and (and (and (and (and (and (and (and (and (and (or (or ?v_8 ?v_1) ?v_135) (or (or ?v_15 ?v_58) ?v_125)) (or (or ?v_106 P22) ?v_18)) (or (or P9 ?v_4) ?v_86)) (or (or ?v_113 ?v_6) ?v_35)) (or (or P5 ?v_17) ?v_54)) (or (or ?v_66 P5) ?v_2)) (or (or ?v_0 ?v_59) P17)) (or (or (not ?v_42) P13) ?v_52)) (or (or ?v_10 ?v_3) ?v_149)) (or (or ?v_148 P26) ?v_36)) (or (or P17 ?v_114) ?v_94)) (or (or ?v_4 ?v_136) ?v_7)) (or (or ?v_5 ?v_21) ?v_6)) (or (or ?v_99 ?v_14) ?v_7)) (or (or ?v_11 ?v_60) ?v_31)) (or (or ?v_9 ?v_33) ?v_22)) (or (or P26 ?v_26) P25)) (or (or ?v_34 ?v_10) ?v_11)) (or (or ?v_43 ?v_103) P15)) (or (or ?v_41 P5) P19)) (or (or ?v_71 ?v_29) ?v_65)) (or (or ?v_40 ?v_14) ?v_15)) (or (or ?v_5 ?v_16) P8)) (or (or ?v_17 ?v_18) ?v_129)) (or (or ?v_19 ?v_11) ?v_81)) (or (or ?v_19 ?v_48) ?v_77)) (or (or ?v_7 P21) ?v_68)) (or (or ?v_23 P9) ?v_0)) (or (or ?v_20 ?v_27) ?v_139)) (or (or ?v_21 ?v_132) ?v_8)) (or (or ?v_22 ?v_3) ?v_23)) (or (or ?v_2 ?v_24) ?v_80)) (or (or ?v_91 ?v_26) ?v_27)) (or (or P0 ?v_61) ?v_7)) (or ?v_158 ?v_29)) (or (or ?v_75 ?v_22) ?v_107)) (or (or ?v_8 ?v_31) ?v_51)) (or (or ?v_45 ?v_33) ?v_87)) (or (or ?v_35 ?v_36) P14)) (or (or ?v_83 ?v_38) ?v_39)) (or (or P24 P23) ?v_38)) (or (or ?v_39 ?v_73) ?v_40)) (or (or ?v_53 ?v_50) P13)) (or (or P22 P5) P19)) (or (or ?v_42 ?v_42) ?v_35)) (or (or ?v_40 ?v_97) ?v_43)) (or (or ?v_44 ?v_11) ?v_45)) (or (or ?v_62 ?v_67) ?v_46)) (or (or P8 P6) ?v_40)) (or (or ?v_14 ?v_64) ?v_89)) (or (or P3 ?v_3) ?v_48)) (or (or ?v_49 ?v_3) P26)) (or (or ?v_19 ?v_31) ?v_112)) (or (or ?v_40 ?v_42) ?v_51)) (or (or ?v_74 ?v_40) ?v_52)) (or (or ?v_53 ?v_54) ?v_79)) (or (or ?v_98 ?v_55) P18)) (or (or ?v_150 ?v_63) ?v_57)) (or (or ?v_58 ?v_51) ?v_142)) (or ?v_133 P14)) (or (or P14 P18) ?v_61)) (or (or P18 ?v_127) ?v_20)) (or (or ?v_62 ?v_63) P5)) (or (or P17 P18) ?v_15)) (or (or P9 ?v_61) ?v_23)) (or (or ?v_95 ?v_64) ?v_119)) (or (or P1 ?v_66) ?v_76)) (or (or ?v_67 ?v_51) P28)) (or (or ?v_78 ?v_51) ?v_16)) (or (or ?v_137 ?v_88) ?v_15)) (or (or ?v_4 ?v_117) ?v_68)) (or (or P27 ?v_35) ?v_69)) (or (or ?v_33 ?v_42) ?v_70)) (or (or ?v_57 ?v_92) P7)) (or (or ?v_124 ?v_71) ?v_72)) (or (or ?v_143 ?v_134) P0)) (or (or ?v_35 ?v_73) ?v_74)) (or (or ?v_122 P5) ?v_84)) (or (or ?v_93 ?v_29) ?v_75)) (or (or P12 ?v_147) ?v_77)) (or (or ?v_78 ?v_79) ?v_80)) (or (or ?v_81 P9) ?v_41)) (or (or ?v_59 ?v_68) ?v_104)) (or (or ?v_63 P23) ?v_34)) (or (or P9 ?v_36) ?v_55)) (or (or ?v_82 ?v_23) ?v_71)) (or (or ?v_58 P20) ?v_63)) (or (or ?v_83 ?v_51) ?v_84)) (or (or ?v_130 ?v_17) ?v_67)) (or (or ?v_101 ?v_86) ?v_87)) (or (or ?v_88 ?v_52) ?v_3)) (or (or ?v_55 ?v_86) ?v_89)) (or (or ?v_66 ?v_90) ?v_91)) (or (or ?v_92 ?v_11) ?v_65)) (or (or ?v_20 ?v_93) ?v_77)) (or (or ?v_94 ?v_95) ?v_46)) (or (or ?v_78 ?v_68) P3)) (or (or ?v_95 P21) ?v_4)) (or (or P25 P27) ?v_116)) (or (or ?v_96 ?v_67) ?v_43)) (or (or P18 P21) ?v_7)) (or (or P28 ?v_21) ?v_131)) (or (or ?v_105 ?v_83) ?v_97)) (or (or ?v_98 ?v_11) P21)) (or (or ?v_99 ?v_48) ?v_66)) (or (or P10 ?v_3) ?v_66)) (or (or ?v_21 P20) ?v_0)) (or (or P21 ?v_94) ?v_102)) (or (or ?v_40 ?v_92) ?v_100)) (or (or ?v_54 ?v_101) ?v_73)) (or (or P23 ?v_109) ?v_103)) (or (or ?v_104 ?v_102) ?v_154)) (or (or ?v_74 ?v_106) P14)) (or (or ?v_92 ?v_107) ?v_61)) (or (or P3 ?v_53) ?v_95)) (or (or ?v_108 P10) ?v_151)) (or (or ?v_19 ?v_24) ?v_75)) (or (or ?v_24 ?v_59) P9)) (or (or ?v_20 ?v_17) ?v_34)) (or (or ?v_95 ?v_66) P29)) (or (or P19 ?v_74) ?v_48)) (or (or ?v_120 ?v_44) P17)) (or (or ?v_80 ?v_64) ?v_87)) (or (or ?v_18 ?v_108) (not ?v_45))) (or (or P25 ?v_9) ?v_21)) (or (or ?v_24 ?v_51) ?v_88)) (or (or ?v_20 ?v_6) P6)) (or (or P3 ?v_75) ?v_2)) (or (or ?v_40 ?v_46) ?v_67)) (or (or ?v_31 ?v_75) ?v_106)) (or (or ?v_109 ?v_103) ?v_98)) (or (or P17 ?v_111) P19)) (or (or P14 ?v_111) ?v_38)) (or (or ?v_104 ?v_80) ?v_112)) (or (or ?v_113 ?v_24) P5)) (or (or ?v_114 ?v_141) ?v_115)) (or (or ?v_31 ?v_55) ?v_93)) (or (or ?v_116 ?v_117) ?v_0)) (or (or ?v_118 ?v_123) ?v_119)) (or (or ?v_92 P26) ?v_65)) (or (or ?v_99 ?v_26) ?v_114)) (or (or ?v_120 ?v_66) ?v_80)) (or (or ?v_121 ?v_74) ?v_4)) (or (or ?v_111 ?v_6) P13)) (or (or ?v_122 ?v_123) ?v_140)) (or (or ?v_31 ?v_70) ?v_40)) (or (or ?v_20 P16) ?v_75)) (or (or ?v_2 ?v_16) ?v_76)) (or (or ?v_73 ?v_48) ?v_125)) (or (or ?v_101 ?v_113) ?v_126)) (or (or P6 ?v_127) P13)) (or (or ?v_111 ?v_71) ?v_128)) (or (or ?v_67 ?v_112) P11)) (or (or ?v_45 ?v_62) P28)) (or (or ?v_62 P10) ?v_145)) (or (or P13 ?v_153) ?v_91)) (or (or ?v_84 ?v_97) ?v_65)) (or (or ?v_157 ?v_55) ?v_80)) (or (or ?v_42 ?v_8) ?v_84)) (or (or ?v_0 ?v_129) ?v_2)) (or (or ?v_79 ?v_36) ?v_117)) (or (or ?v_125 ?v_73) ?v_24)) (or (or ?v_5 ?v_61) ?v_98)) (or (or ?v_51 P8) ?v_72)) (or (or ?v_125 ?v_49) ?v_73)) (or (or P4 ?v_97) P16)) (or (or ?v_51 ?v_74) P9)) (or (or P23 ?v_130) ?v_84)) (or (or ?v_36 P6) ?v_61)) (or (or ?v_61 ?v_131) ?v_132)) (or (or ?v_44 ?v_72) P28)) (or (or ?v_68 ?v_108) P28)) (or (or ?v_95 ?v_5) ?v_115)) (or (or ?v_44 P29) ?v_33)) (or ?v_133 P6)) (or (or ?v_132 ?v_3) ?v_43)) (or (or ?v_111 ?v_134) ?v_128)) (or (or ?v_35 P29) ?v_117)) (or (or ?v_144 ?v_2) ?v_135)) (or (or ?v_66 ?v_136) ?v_90)) (or (or P28 ?v_51) ?v_137)) (or (or ?v_68 ?v_0) ?v_138)) (or (or ?v_36 ?v_139) ?v_86)) (or (or ?v_76 ?v_140) ?v_39)) (or (or ?v_141 ?v_67) ?v_77)) (or (or ?v_29 P20) P2)) (or (or ?v_140 P1) ?v_66)) (or (or ?v_49 ?v_45) ?v_92)) (or (or ?v_118 ?v_117) ?v_98)) (or (or ?v_130 ?v_62) ?v_112)) (or (or ?v_106 P17) ?v_142)) (or (or ?v_100 P1) ?v_8)) (or (or ?v_46 ?v_102) ?v_128)) (or (or ?v_0 ?v_65) P4)) (or (or P15 ?v_3) P8)) (or ?v_146 P21)) (or (or ?v_113 ?v_125) ?v_118)) (or (or ?v_116 ?v_137) ?v_11)) (or (or ?v_57 ?v_143) ?v_7)) (or (or ?v_107 ?v_111) P15)) (or (or ?v_139 ?v_120) ?v_66)) (or (or P9 ?v_19) ?v_129)) (or (or ?v_94 ?v_144) ?v_109)) (or (or ?v_109 P3) ?v_100)) (or (or ?v_34 ?v_93) ?v_62)) (or (or ?v_66 ?v_145) ?v_124)) (or (or ?v_7 P5) ?v_57)) (or (or ?v_68 ?v_20) ?v_82)) (or (or ?v_10 ?v_59) ?v_39)) (or (or ?v_14 ?v_79) P27)) (or ?v_146 ?v_121)) (or (or (not ?v_117) ?v_15) P20)) (or (or ?v_27 ?v_124) ?v_15)) (or (or ?v_71 P3) ?v_123)) (or (or ?v_138 ?v_152) ?v_56)) (or (or ?v_10 ?v_135) P14)) (or (or ?v_95 ?v_139) ?v_132)) (or (or ?v_65 P19) ?v_115)) (or (or ?v_63 ?v_51) P14)) (or (or P11 ?v_98) ?v_141)) (or (or ?v_39 ?v_59) ?v_58)) (or (or ?v_78 P14) ?v_101)) (or (or P17 ?v_1) ?v_52)) (or (or ?v_14 ?v_48) ?v_147)) (or (or ?v_95 P7) ?v_98)) (or (or ?v_86 ?v_84) ?v_123)) (or (or ?v_83 ?v_11) ?v_82)) (or (or ?v_121 ?v_131) P2)) (or (or ?v_74 ?v_77) ?v_72)) (or (or ?v_77 ?v_17) ?v_27)) (or (or ?v_68 ?v_63) ?v_11)) (or (or ?v_45 ?v_120) P20)) (or (or P17 ?v_61) ?v_127)) (or (or P5 ?v_112) ?v_100)) (or (or ?v_94 ?v_4) P4)) (or (or P7 ?v_72) ?v_124)) (or (or ?v_128 ?v_70) ?v_29)) (or (or ?v_72 ?v_127) P24)) (or (or ?v_67 ?v_119) ?v_27)) (or (or ?v_82 ?v_120) P13)) (or (or ?v_125 ?v_59) ?v_70)) (or (or ?v_148 ?v_5) ?v_149)) (or (or P7 P24) ?v_50)) (or (or ?v_95 ?v_122) ?v_91)) (or (or ?v_95 ?v_77) ?v_46)) (or (or ?v_122 ?v_98) ?v_94)) (or (or ?v_150 ?v_123) ?v_19)) (or (or ?v_131 P28) ?v_14)) (or (or ?v_15 ?v_78) ?v_112)) (or (or ?v_70 ?v_138) P29)) (or (or ?v_59 ?v_135) ?v_14)) (or (or ?v_72 ?v_101) ?v_0)) (or (or ?v_151 ?v_15) (not ?v_59))) (or (or P1 ?v_93) ?v_103)) (or (or ?v_132 ?v_106) ?v_150)) (or (or P4 ?v_22) ?v_142)) (or (or ?v_29 ?v_98) ?v_10)) (or (or P17 ?v_62) P26)) (or (or ?v_152 ?v_57) P4)) (or (or ?v_109 ?v_76) ?v_121)) (or (or P9 ?v_127) ?v_156)) (or (or ?v_123 ?v_42) ?v_99)) (or (or ?v_97 P16) ?v_81)) (or (or ?v_95 ?v_59) ?v_53)) (or (or ?v_132 ?v_27) ?v_120)) (or (or ?v_54 P6) ?v_83)) (or (or P22 P14) ?v_116)) (or (or ?v_71 P1) ?v_15)) (or (or ?v_123 ?v_79) ?v_80)) (or (or ?v_6 ?v_144) P8)) (or (or ?v_101 ?v_139) ?v_11)) (or (or P2 ?v_11) ?v_3)) (or (or ?v_102 ?v_51) ?v_131)) (or (or ?v_119 P12) ?v_152)) (or (or ?v_153 ?v_137) ?v_140)) (or (or ?v_29 ?v_2) ?v_60)) (or (or ?v_147 P2) ?v_154)) (or (or ?v_152 ?v_132) ?v_0)) (or (or P21 ?v_141) P14)) (or (or P10 ?v_61) ?v_112)) (or (or ?v_99 ?v_23) P3)) (or (or ?v_75 ?v_59) ?v_119)) (or (or P20 ?v_19) ?v_7)) (or (or ?v_63 ?v_31) ?v_123)) (or (or ?v_36 P17) ?v_66)) (or (or P5 ?v_152) ?v_148)) (or (or ?v_75 ?v_144) ?v_137)) (or (or ?v_63 ?v_38) ?v_155)) (or (or ?v_35 ?v_107) ?v_65)) (or (or ?v_15 ?v_95) ?v_138)) (or (or P29 ?v_1) ?v_9)) (or (or ?v_55 ?v_72) P16)) (or (or ?v_3 ?v_35) ?v_31)) (or (or P27 P4) ?v_8)) (or (or P3 ?v_7) ?v_69)) (or (or P20 ?v_151) ?v_115)) (or (or ?v_129 P1) ?v_154)) (or (or ?v_134 ?v_58) ?v_31)) (or (or ?v_84 ?v_76) ?v_121)) (or (or ?v_98 ?v_151) ?v_139)) (or (or ?v_151 ?v_40) ?v_20)) (or (or ?v_70 ?v_92) ?v_52)) (or (or ?v_19 ?v_117) ?v_24)) (or (or ?v_56 ?v_4) ?v_141)) (or (or P27 ?v_68) ?v_84)) (or (or ?v_129 ?v_88) ?v_148)) (or (or P26 ?v_134) P13)) (or (or P24 ?v_9) ?v_16)) (or (or P25 ?v_131) ?v_86)) (or (or ?v_156 P6) ?v_152)) (or (or ?v_136 ?v_130) ?v_109)) (or (or P11 ?v_70) ?v_36)) (or (or ?v_64 ?v_27) ?v_106)) (or (or ?v_144 ?v_75) ?v_15)) (or (or ?v_36 ?v_117) ?v_61)) (or (or P28 ?v_49) ?v_157)) (or ?v_158 ?v_0)) (or (or ?v_69 ?v_90) ?v_105)) (or (or ?v_89 ?v_122) P15)) (or (or P21 ?v_126) ?v_62)) (or (or ?v_58 ?v_20) ?v_1)) (or (or ?v_2 P26) ?v_41)) (or (or ?v_93 ?v_44) ?v_90)) (or (or ?v_113 ?v_16) ?v_86)) (or (or P0 ?v_125) P28)) (or (or ?v_78 ?v_56) ?v_132)) (or (or ?v_151 P18) ?v_52)) (or (or ?v_134 ?v_94) P12)) (or (or ?v_14 ?v_126) ?v_72)) (or (or ?v_130 ?v_150) ?v_116)) (or (or ?v_33 ?v_52) ?v_91)) (or (or P24 ?v_29) ?v_148)) (or (or ?v_0 P15) ?v_153)) (or (or ?v_111 P15) ?v_21)) (or (or P13 ?v_22) ?v_99)) (or (or ?v_138 ?v_86) P13)) (or (or ?v_36 ?v_132) ?v_23)) (or (or ?v_142 ?v_67) ?v_74)) (or (or ?v_98 ?v_150) ?v_80)) (or (or P26 ?v_29) ?v_51)) (or (or ?v_147 ?v_92) ?v_70)) (or (or ?v_82 ?v_131) ?v_98)) (or (or ?v_61 ?v_124) ?v_23)) (or (or ?v_127 ?v_137) P21)) (or (or ?v_62 ?v_50) ?v_137)) (or (or ?v_3 ?v_44) ?v_131)) (or (or ?v_127 ?v_48) ?v_92)) (or (or ?v_113 ?v_34) ?v_126)) (or (or ?v_63 ?v_18) ?v_10)) (or (or ?v_90 ?v_149) ?v_16)) (or (or ?v_19 ?v_68) ?v_41)) (or (or P10 ?v_80) ?v_107)) (or (or ?v_38 ?v_43) P29)) (or (or P20 ?v_43) ?v_24)) (or (or ?v_78 ?v_117) ?v_51)) (or (or ?v_31 ?v_145) ?v_111)) (or (or P8 P1) ?v_122)) (or (or ?v_115 ?v_107) ?v_74)) (or (or P9 ?v_56) ?v_46)))))))))))))))))))))))))
(check-sat)
(exit)
